100 500 10 200 10 100
91 94
41 168
29 152
10 165
98 183
83 76
20 93
100 155
12 99
71 175
95 155
77 131
82 184
47 16
46 84
81 116
91 67
84 104
57 160
21 195
64 89
79 199
31 171
76 175
14 195
91 118
99 160
71 110
62 23
88 163
96 47
51 86
96 175
75 135
35 70
60 120
80 43
26 143
32 115
51 118
91 87
88 79
25 117
32 32
83 117
92 71
41 86
80 80
85 171
79 15
40 177
25 11
47 66
90 68
86 83
59 124
89 54
64 72
21 194
98 113
59 79
34 86
48 166
25 36
75 182
59 189
13 11
40 191
68 177
73 81
77 77
28 85
49 188
86 103
85 62
17 113
35 34
32 130
62 167
76 147
58 42
57 151
24 168
28 100
69 42
88 69
39 188
65 73
13 134
92 199
87 25
84 162
56 123
64 38
70 69
60 81
26 132
96 156
56 15
75 88
